NAME: tsp45_13
COMMENT: 45-tsp problem (Padberg/Rinaldi)
TYPE: TSP
DIMENSION: 45
EDGE_WEIGHT_TYPE : EUC_2D
NODE_COORD_SECTION
1 19 8
2 39 32
3 7 22
4 40 38
5 38 16
6 18 4
7 38 10
8 23 22
9 4 31
10 1 8
11 4 29
12 11 27
13 25 40
14 21 39
15 33 23
16 35 36
17 1 0
18 25 9
19 3 33
20 19 23
21 16 40
22 34 19
23 15 20
24 2 5
25 29 13
26 28 3
27 35 30
28 12 13
29 4 4
30 19 19
31 7 22
32 39 14
33 39 37
34 6 12
35 17 37
36 33 5
37 34 7
38 25 20
39 7 4
40 20 21
41 29 3
42 32 27
43 34 14
44 32 18
45 3 31
